p cnf 319 1089
a 1 2 3 4 5 6 7 8 9 10 11 12 13 14 15 16 17 18 19 21 22 23 24 25 26 27 28 29 30 31 32 33 34 35 36 37 38 39 40 41 42 43 45 46 47 48 49 50 51 52 53 55 56 57 58 60 61 62 63 64 65 66 0
e 20 44 54 59 67 68 69 70 71 72 73 74 75 76 77 78 79 80 81 82 83 84 85 86 87 88 89 90 91 92 93 94 95 96 97 98 99 100 101 102 103 104 105 106 107 108 109 110 111 112 113 114 115 116 117 118 119 120 121 122 123 124 125 126 127 128 129 130 131 132 133 134 135 136 137 138 139 140 141 142 143 144 145 146 147 148 149 150 151 152 153 154 155 156 157 158 159 160 161 162 163 164 165 166 167 168 169 170 171 172 173 174 175 176 177 178 179 180 181 182 183 184 185 186 187 188 189 190 191 192 193 194 195 196 197 198 199 200 201 202 203 204 205 206 207 208 209 210 211 212 213 214 215 216 217 218 219 220 221 222 223 224 225 226 227 228 229 230 231 232 233 234 235 236 237 238 239 240 241 242 243 244 245 246 247 248 249 250 251 252 253 254 255 256 257 258 259 260 261 262 263 264 265 266 267 268 269 270 271 272 273 274 275 276 277 278 279 280 281 282 283 284 285 286 287 288 289 290 291 292 293 294 295 296 297 298 299 300 301 302 303 304 305 306 307 308 309 310 311 312 313 314 315 316 317 318 319 0
-319 0
319 -240 0
319 -263 0
319 -269 0
319 -275 0
319 -278 0
319 -281 0
319 -288 0
319 -291 0
319 -294 0
319 -297 0
319 -300 0
319 -303 0
319 -306 0
319 -309 0
319 -312 0
319 -318 0
5 4 6 3 2 1 -239 -238 -195 -249 -282 -317 318 0
317 -316 0
317 -83 0
317 -84 0
317 -85 0
317 -86 0
-315 -314 -313 316 0
315 -77 0
315 -78 0
315 -170 0
315 -171 0
315 -19 0
315 -18 0
315 -17 0
315 -16 0
315 -15 0
315 -14 0
315 -13 0
314 -72 0
314 -73 0
314 -167 0
314 -168 0
314 -29 0
314 -28 0
314 -27 0
314 -26 0
314 -25 0
314 -24 0
314 -23 0
313 -67 0
313 -68 0
313 -164 0
313 -165 0
313 -38 0
313 -37 0
313 -36 0
313 -35 0
313 -34 0
313 -33 0
313 -32 0
5 4 3 2 1 66 -239 -238 -201 -200 -199 -266 -265 -311 -310 312 0
311 -248 0
311 -253 0
310 -194 0
310 -209 0
4 6 3 2 66 65 -239 -238 -227 -222 -217 -216 -215 -308 -307 309 0
308 -248 0
308 -162 0
307 -256 0
307 -209 0
5 4 6 3 2 65 -239 -238 -161 -148 -129 -108 -87 -305 -304 306 0
305 -273 0
305 -209 0
304 -244 0
304 -228 0
5 4 3 2 66 65 -239 -238 -208 -203 -198 -197 -196 -302 -301 303 0
302 -267 0
302 -162 0
301 -253 0
301 -228 0
4 6 3 2 1 66 -239 -238 -220 -219 -218 -247 -246 -299 -298 300 0
299 -267 0
299 -256 0
298 -194 0
298 -228 0
5 6 3 2 1 66 -239 -238 -193 -192 -191 -190 -181 -296 -295 297 0
296 -267 0
296 -213 0
295 -248 0
295 -231 0
5 6 2 1 66 65 -239 -238 -175 -174 -163 -212 -210 -293 -292 294 0
293 -273 0
293 -194 0
292 -256 0
292 -231 0
5 4 6 2 1 65 -239 -238 -159 -154 -149 -272 -271 -290 -289 291 0
290 -244 0
290 -256 0
289 -162 0
289 -213 0
5 4 2 1 66 65 -239 -238 -214 -257 -287 -282 288 0
287 -286 0
287 -83 0
287 -84 0
287 -85 0
287 -86 0
-285 -284 -283 286 0
285 -125 0
285 -126 0
285 -115 0
285 -116 0
285 -51 0
285 -42 0
285 -19 0
285 -18 0
285 -17 0
285 -16 0
285 -13 0
284 -122 0
284 -123 0
284 -112 0
284 -113 0
284 -52 0
284 -46 0
284 -29 0
284 -28 0
284 -27 0
284 -26 0
284 -23 0
283 -119 0
283 -120 0
283 -109 0
283 -110 0
283 -53 0
283 -49 0
283 -38 0
283 -37 0
283 -36 0
283 -35 0
283 -32 0
282 -273 0
282 -267 0
4 6 2 1 66 65 -239 -238 -225 -224 -223 -255 -254 -280 -279 281 0
280 -273 0
280 -248 0
279 -213 0
279 -228 0
5 6 3 1 66 65 -239 -238 -230 -229 -184 -183 -182 -277 -276 278 0
277 -244 0
277 -194 0
276 -253 0
276 -213 0
5 4 6 3 1 65 -239 -238 -146 -141 -130 -243 -242 -274 -270 275 0
274 -273 0
274 -253 0
-159 -154 -149 -272 -271 273 0
272 -147 0
272 -153 0
272 -83 0
272 -84 0
272 -85 0
272 -86 0
271 -241 0
271 -158 0
271 -83 0
271 -84 0
271 -85 0
271 -86 0
270 -162 0
270 -231 0
5 4 3 1 66 65 -239 -238 -206 -205 -204 -252 -250 -268 -264 269 0
268 -267 0
268 -244 0
-201 -200 -199 -266 -265 267 0
266 -207 0
266 -189 0
266 -83 0
266 -84 0
266 -85 0
266 -86 0
265 -251 0
265 -173 0
265 -83 0
265 -84 0
265 -85 0
265 -86 0
264 -209 0
264 -231 0
4 6 3 1 66 65 -239 -238 -232 -262 -257 -249 263 0
262 -261 0
262 -83 0
262 -84 0
262 -85 0
262 -86 0
-260 -259 -258 261 0
260 -104 0
260 -105 0
260 -94 0
260 -95 0
260 -51 0
260 -42 0
260 -19 0
260 -18 0
260 -17 0
260 -16 0
260 -13 0
259 -101 0
259 -102 0
259 -91 0
259 -92 0
259 -52 0
259 -46 0
259 -29 0
259 -28 0
259 -27 0
259 -26 0
259 -23 0
258 -98 0
258 -99 0
258 -88 0
258 -89 0
258 -53 0
258 -49 0
258 -38 0
258 -37 0
258 -36 0
258 -35 0
258 -32 0
257 -253 0
257 -256 0
-225 -224 -223 -255 -254 256 0
255 -221 0
255 -128 0
255 -83 0
255 -84 0
255 -85 0
255 -86 0
254 -245 0
254 -158 0
254 -83 0
254 -84 0
254 -85 0
254 -86 0
-206 -205 -204 -252 -250 253 0
252 -251 0
252 -140 0
252 -83 0
252 -84 0
252 -85 0
252 -86 0
-198 -197 -196 251 0
250 -202 0
250 -107 0
250 -83 0
250 -84 0
250 -85 0
250 -86 0
249 -244 0
249 -248 0
-220 -219 -218 -247 -246 248 0
247 -226 0
247 -180 0
247 -83 0
247 -84 0
247 -85 0
247 -86 0
246 -245 0
246 -173 0
246 -83 0
246 -84 0
246 -85 0
246 -86 0
-217 -216 -215 245 0
-146 -141 -130 -243 -242 244 0
243 -160 0
243 -145 0
243 -83 0
243 -84 0
243 -85 0
243 -86 0
242 -241 0
242 -140 0
242 -83 0
242 -84 0
242 -85 0
242 -86 0
-129 -108 -87 241 0
5 6 3 2 66 65 -239 -238 -237 -232 -214 -195 240 0
239 -65 0
239 -3 0
239 -2 0
239 -1 0
238 -66 0
238 -6 0
238 -5 0
238 -4 0
237 -236 0
237 -83 0
237 -84 0
237 -85 0
237 -86 0
-235 -234 -233 236 0
235 -79 0
235 -80 0
235 -137 0
235 -138 0
235 -62 0
235 -58 0
235 -51 0
235 -42 0
235 -19 0
235 -18 0
235 -13 0
234 -74 0
234 -75 0
234 -134 0
234 -135 0
234 -63 0
234 -60 0
234 -52 0
234 -46 0
234 -29 0
234 -28 0
234 -23 0
233 -69 0
233 -131 0
233 -132 0
233 -70 0
233 -64 0
233 -61 0
233 -53 0
233 -49 0
233 -38 0
233 -37 0
233 -32 0
232 -228 0
232 -231 0
-230 -229 -184 -183 -182 231 0
230 -107 0
230 -211 0
230 -83 0
230 -84 0
230 -85 0
230 -86 0
229 -145 0
229 -176 0
229 -83 0
229 -84 0
229 -85 0
229 -86 0
-227 -222 -217 -216 -215 228 0
227 -118 0
227 -226 0
227 -83 0
227 -84 0
227 -85 0
227 -86 0
-225 -224 -223 226 0
225 -97 0
225 -158 0
225 -83 0
225 -84 0
225 -85 0
225 -86 0
224 -128 0
224 -189 0
224 -83 0
224 -84 0
224 -85 0
224 -86 0
223 -153 0
223 -83 0
223 -84 0
223 -85 0
223 -86 0
222 -82 0
222 -221 0
222 -83 0
222 -84 0
222 -85 0
222 -86 0
-220 -219 -218 221 0
220 -153 0
220 -180 0
220 -83 0
220 -84 0
220 -85 0
220 -86 0
219 -97 0
219 -173 0
219 -83 0
219 -84 0
219 -85 0
219 -86 0
218 -189 0
218 -83 0
218 -84 0
218 -85 0
218 -86 0
217 -118 0
217 -153 0
217 -83 0
217 -84 0
217 -85 0
217 -86 0
216 -82 0
216 -189 0
216 -83 0
216 -84 0
216 -85 0
216 -86 0
215 -97 0
215 -83 0
215 -84 0
215 -85 0
215 -86 0
214 -209 0
214 -213 0
-175 -174 -163 -212 -210 213 0
212 -128 0
212 -211 0
212 -83 0
212 -84 0
212 -85 0
212 -86 0
-193 -192 -191 211 0
210 -185 0
210 -153 0
210 -83 0
210 -84 0
210 -85 0
210 -86 0
-208 -203 -198 -197 -196 209 0
208 -207 0
208 -97 0
208 -83 0
208 -84 0
208 -85 0
208 -86 0
-206 -205 -204 207 0
206 -118 0
206 -140 0
206 -83 0
206 -84 0
206 -85 0
206 -86 0
205 -107 0
205 -180 0
205 -83 0
205 -84 0
205 -85 0
205 -86 0
204 -145 0
204 -83 0
204 -84 0
204 -85 0
204 -86 0
203 -202 0
203 -82 0
203 -83 0
203 -84 0
203 -85 0
203 -86 0
-201 -200 -199 202 0
201 -145 0
201 -189 0
201 -83 0
201 -84 0
201 -85 0
201 -86 0
200 -118 0
200 -173 0
200 -83 0
200 -84 0
200 -85 0
200 -86 0
199 -180 0
199 -83 0
199 -84 0
199 -85 0
199 -86 0
198 -97 0
198 -145 0
198 -83 0
198 -84 0
198 -85 0
198 -86 0
197 -82 0
197 -180 0
197 -83 0
197 -84 0
197 -85 0
197 -86 0
196 -118 0
196 -83 0
196 -84 0
196 -85 0
196 -86 0
195 -162 0
195 -194 0
-193 -192 -191 -190 -181 194 0
193 -140 0
193 -189 0
193 -83 0
193 -84 0
193 -85 0
193 -86 0
192 -158 0
192 -180 0
192 -83 0
192 -84 0
192 -85 0
192 -86 0
191 -173 0
191 -83 0
191 -84 0
191 -85 0
191 -86 0
190 -185 0
190 -189 0
190 -83 0
190 -84 0
190 -85 0
190 -86 0
-188 -187 -186 189 0
188 -170 0
188 -171 0
188 -94 0
188 -95 0
188 -42 0
188 -41 0
188 -19 0
188 -18 0
188 -17 0
188 -16 0
188 -14 0
187 -91 0
187 -92 0
187 -167 0
187 -168 0
187 -46 0
187 -45 0
187 -29 0
187 -28 0
187 -27 0
187 -26 0
187 -24 0
186 -88 0
186 -89 0
186 -164 0
186 -165 0
186 -49 0
186 -48 0
186 -38 0
186 -37 0
186 -36 0
186 -35 0
186 -33 0
-184 -183 -182 185 0
184 -145 0
184 -158 0
184 -83 0
184 -84 0
184 -85 0
184 -86 0
183 -107 0
183 -173 0
183 -83 0
183 -84 0
183 -85 0
183 -86 0
182 -140 0
182 -83 0
182 -84 0
182 -85 0
182 -86 0
181 -176 0
181 -180 0
181 -83 0
181 -84 0
181 -85 0
181 -86 0
-179 -178 -177 180 0
179 -115 0
179 -116 0
179 -170 0
179 -171 0
179 -43 0
179 -42 0
179 -41 0
179 -19 0
179 -17 0
179 -16 0
179 -14 0
178 -112 0
178 -113 0
178 -167 0
178 -168 0
178 -47 0
178 -46 0
178 -45 0
178 -29 0
178 -27 0
178 -26 0
178 -24 0
177 -109 0
177 -110 0
177 -164 0
177 -165 0
177 -50 0
177 -49 0
177 -48 0
177 -38 0
177 -36 0
177 -35 0
177 -33 0
-175 -174 -163 176 0
175 -153 0
175 -140 0
175 -83 0
175 -84 0
175 -85 0
175 -86 0
174 -128 0
174 -173 0
174 -83 0
174 -84 0
174 -85 0
174 -86 0
-172 -169 -166 173 0
172 -170 0
172 -171 0
172 -137 0
172 -138 0
172 -58 0
172 -42 0
172 -41 0
172 -19 0
172 -18 0
172 -16 0
172 -14 0
-7 20 171 0
-11 -20 170 0
169 -167 0
169 -168 0
169 -134 0
169 -135 0
169 -60 0
169 -46 0
169 -45 0
169 -29 0
169 -28 0
169 -26 0
169 -24 0
-8 20 168 0
-10 -20 167 0
166 -164 0
166 -165 0
166 -131 0
166 -132 0
166 -61 0
166 -49 0
166 -48 0
166 -38 0
166 -37 0
166 -35 0
166 -33 0
-9 20 165 0
-12 -20 164 0
163 -158 0
163 -83 0
163 -84 0
163 -85 0
163 -86 0
-161 -148 -129 -108 -87 162 0
161 -160 0
161 -118 0
161 -83 0
161 -84 0
161 -85 0
161 -86 0
-159 -154 -149 160 0
159 -82 0
159 -158 0
159 -83 0
159 -84 0
159 -85 0
159 -86 0
-157 -156 -155 158 0
157 -125 0
157 -126 0
157 -137 0
157 -138 0
157 -58 0
157 -51 0
157 -42 0
157 -41 0
157 -19 0
157 -18 0
157 -16 0
156 -122 0
156 -123 0
156 -134 0
156 -135 0
156 -60 0
156 -52 0
156 -46 0
156 -45 0
156 -29 0
156 -28 0
156 -26 0
155 -119 0
155 -120 0
155 -131 0
155 -132 0
155 -61 0
155 -53 0
155 -49 0
155 -48 0
155 -38 0
155 -37 0
155 -35 0
154 -153 0
154 -107 0
154 -83 0
154 -84 0
154 -85 0
154 -86 0
-152 -151 -150 153 0
152 -125 0
152 -126 0
152 -94 0
152 -95 0
152 -51 0
152 -43 0
152 -42 0
152 -41 0
152 -19 0
152 -17 0
152 -16 0
151 -122 0
151 -123 0
151 -91 0
151 -92 0
151 -52 0
151 -47 0
151 -46 0
151 -45 0
151 -29 0
151 -27 0
151 -26 0
150 -119 0
150 -120 0
150 -88 0
150 -89 0
150 -53 0
150 -50 0
150 -49 0
150 -48 0
150 -38 0
150 -36 0
150 -35 0
149 -128 0
149 -83 0
149 -84 0
149 -85 0
149 -86 0
148 -147 0
148 -97 0
148 -83 0
148 -84 0
148 -85 0
148 -86 0
-146 -141 -130 147 0
146 -145 0
146 -128 0
146 -83 0
146 -84 0
146 -85 0
146 -86 0
-144 -143 -142 145 0
144 -115 0
144 -116 0
144 -104 0
144 -105 0
144 -55 0
144 -51 0
144 -42 0
144 -41 0
144 -18 0
144 -17 0
144 -16 0
143 -112 0
143 -113 0
143 -101 0
143 -102 0
143 -56 0
143 -52 0
143 -46 0
143 -45 0
143 -28 0
143 -27 0
143 -26 0
142 -109 0
142 -110 0
142 -98 0
142 -99 0
142 -57 0
142 -53 0
142 -49 0
142 -48 0
142 -37 0
142 -36 0
142 -35 0
141 -82 0
141 -140 0
141 -83 0
141 -84 0
141 -85 0
141 -86 0
-139 -136 -133 140 0
139 -104 0
139 -105 0
139 -137 0
139 -138 0
139 -58 0
139 -51 0
139 -43 0
139 -42 0
139 -41 0
139 -19 0
139 -16 0
-22 -59 138 0
-21 59 137 0
136 -101 0
136 -102 0
136 -134 0
136 -135 0
136 -60 0
136 -52 0
136 -47 0
136 -46 0
136 -45 0
136 -29 0
136 -26 0
-30 59 135 0
-31 -59 134 0
133 -98 0
133 -99 0
133 -131 0
133 -132 0
133 -61 0
133 -53 0
133 -50 0
133 -49 0
133 -48 0
133 -38 0
133 -35 0
-39 59 132 0
-40 -59 131 0
130 -107 0
130 -83 0
130 -84 0
130 -85 0
130 -86 0
129 -118 0
129 -128 0
129 -83 0
129 -84 0
129 -85 0
129 -86 0
-127 -124 -121 128 0
127 -77 0
127 -78 0
127 -125 0
127 -126 0
127 -55 0
127 -51 0
127 -41 0
127 -18 0
127 -17 0
127 -16 0
127 -15 0
-7 44 126 0
-11 -44 125 0
124 -72 0
124 -73 0
124 -122 0
124 -123 0
124 -56 0
124 -52 0
124 -45 0
124 -28 0
124 -27 0
124 -26 0
124 -25 0
-8 44 123 0
-10 -44 122 0
121 -67 0
121 -68 0
121 -119 0
121 -120 0
121 -57 0
121 -53 0
121 -48 0
121 -37 0
121 -36 0
121 -35 0
121 -34 0
-9 44 120 0
-12 -44 119 0
-117 -114 -111 118 0
117 -115 0
117 -116 0
117 -79 0
117 -80 0
117 -62 0
117 -51 0
117 -42 0
117 -41 0
117 -19 0
117 -18 0
117 -17 0
-21 44 116 0
-22 -44 115 0
114 -112 0
114 -113 0
114 -74 0
114 -75 0
114 -63 0
114 -52 0
114 -46 0
114 -45 0
114 -29 0
114 -28 0
114 -27 0
-30 44 113 0
-31 -44 112 0
111 -109 0
111 -110 0
111 -69 0
111 -70 0
111 -64 0
111 -53 0
111 -49 0
111 -48 0
111 -38 0
111 -37 0
111 -36 0
-39 44 110 0
-40 -44 109 0
108 -97 0
108 -107 0
108 -83 0
108 -84 0
108 -85 0
108 -86 0
-106 -103 -100 107 0
106 -77 0
106 -78 0
106 -104 0
106 -105 0
106 -51 0
106 -41 0
106 -19 0
106 -18 0
106 -17 0
106 -16 0
106 -15 0
-7 54 105 0
-11 -54 104 0
103 -72 0
103 -73 0
103 -101 0
103 -102 0
103 -52 0
103 -45 0
103 -29 0
103 -28 0
103 -27 0
103 -26 0
103 -25 0
-8 54 102 0
-10 -54 101 0
100 -67 0
100 -68 0
100 -98 0
100 -99 0
100 -53 0
100 -48 0
100 -38 0
100 -37 0
100 -36 0
100 -35 0
100 -34 0
-9 54 99 0
-12 -54 98 0
-96 -93 -90 97 0
96 -79 0
96 -80 0
96 -94 0
96 -95 0
96 -62 0
96 -55 0
96 -51 0
96 -42 0
96 -41 0
96 -18 0
96 -17 0
-21 54 95 0
-22 -54 94 0
93 -91 0
93 -92 0
93 -74 0
93 -75 0
93 -63 0
93 -56 0
93 -52 0
93 -46 0
93 -45 0
93 -28 0
93 -27 0
-30 54 92 0
-31 -54 91 0
90 -88 0
90 -89 0
90 -69 0
90 -70 0
90 -64 0
90 -57 0
90 -53 0
90 -49 0
90 -48 0
90 -37 0
90 -36 0
-39 54 89 0
-40 -54 88 0
87 -82 0
87 -83 0
87 -84 0
87 -85 0
87 -86 0
-8 7 86 0
-9 8 85 0
-11 10 84 0
-10 12 83 0
-81 -76 -71 82 0
81 -77 0
81 -78 0
81 -79 0
81 -80 0
81 -62 0
81 -51 0
81 -41 0
81 -19 0
81 -18 0
81 -17 0
81 -15 0
-7 59 80 0
-11 -59 79 0
-21 20 78 0
-20 -22 77 0
76 -72 0
76 -73 0
76 -74 0
76 -75 0
76 -63 0
76 -52 0
76 -45 0
76 -29 0
76 -28 0
76 -27 0
76 -25 0
-8 59 75 0
-10 -59 74 0
-30 20 73 0
-20 -31 72 0
71 -67 0
71 -68 0
71 -69 0
71 -70 0
71 -64 0
71 -53 0
71 -48 0
71 -38 0
71 -37 0
71 -36 0
71 -34 0
-12 -59 70 0
-9 59 69 0
-39 20 68 0
-20 -40 67 0
